8	8
1	77	7	70	2	74	5	54	3	23	6	62	4	34	0	35
7	4	5	26	6	54	1	28	3	35	4	35	2	77	0	54
7	55	2	80	4	54	6	50	5	24	0	16	1	16	3	96
4	41	5	60	1	17	0	95	3	73	2	31	6	80	7	35
0	61	7	67	5	82	4	52	2	65	3	13	6	14	1	37
1	92	4	44	7	81	0	92	2	76	5	73	6	69	3	31
7	87	2	28	6	7	5	43	3	10	4	97	0	35	1	96
0	96	7	60	4	75	2	9	6	19	5	97	3	49	1	51
